
 102   30
  10   10   10   10   10   10   10   10   10   10   10   10   10   10   10   10   10   10   10   10   10   10   10   10   10   10   10   10   10   10

   0   0   0   0   0   0   0   0   0   0   0   0   0   0   0   0   0   0   0   0   0   0   0   0   0   0   0   0   0   0   0  25 2 3 4 5 6 7 8 9 10 11 12 13 14 16 17 18 19 20 21 22 24 25 27 39 45 
   2   0   0   1   0   0   0   2   0   0   0   0   0   0   0   0   0   0   0   0   0   0   0   0   0   1   0   0   0   0   0  13 101 62 60 59 52 51 50 49 48 43 36 33 15 
  10   0   0   0   0   0   0   0   0   0   0   0   2   0   0   0   0   0   0   5   0   0   0   0   0   0   0   0   0   0   0  17 101 99 97 72 71 65 62 61 56 54 52 49 47 44 42 35 31 
   9   0   0   0   0   0   0   0   0   0   3   0   0   0   0   0   0   0   0   0   0   0   1   0   1   0   1   0   0   0   0  14 100 97 95 72 69 65 62 60 58 53 51 44 30 26 
  10   0   0   0   0   0   0   0   0   0   0   0   4   0   0   0   0   0   0   0   0   0   0   0   3   0   9   0   0   0   0  14 101 97 70 66 65 57 52 51 48 47 43 42 37 23 
   9   0   0   0   0   0   0   0   0   0   4   2   0   0   0   0   0   0   0   0   0   0   0   0   0   0   0   0   3   0   3  14 101 71 69 65 62 57 50 43 42 41 38 37 36 28 
   9   0   0   0   0   0   0   3   0   0   0   0   0   0   0   0   0   0   0   0   0   1   0   0   0   0   0   2   0   0   0  17 101 98 97 71 69 67 66 64 60 59 57 53 49 48 41 37 29 
   8   0   0   0   0   2   2   0   0   0   0   0   0   0   0   0   0   0   0   0   0   0   0   0   0   4   0   0   0   0   6  15 101 98 61 60 59 57 52 48 47 43 42 41 40 37 36 
   2   0   1   0   3   0   0  10   0   0   0   0   0   0   0   0   0   0   0   0   0   0   0   4   0   0   0   0   0   0   0  18 101 99 97 95 74 73 72 71 67 66 65 62 61 58 57 56 47 35 
   8   0   0   0   0   4   0   0   1   0   0   0   0   0   1   4   2   0   0   0   0   0   0   0   0   0   0   0   2   0   0  15 91 73 69 68 66 65 58 57 56 55 52 47 43 42 34 
   4   0   0   0   0   0   0   0   5   0   0   0   0   1   0   0   0   1   0   0   0   9   0   8  10   0   0   0  10   0  10  13 99 97 69 68 63 61 57 55 53 52 43 32 31 
   5   0   0   0   0   7   0   0   0   0   0   0   0   0   0   0   0   0   0   0   0   0   0   0   0   0   0   0   0   0   0  17 101 99 97 94 89 74 68 67 66 65 62 59 52 51 43 42 37 
   5   3   0   0   0   0   4   0   0   0   5   0   0   0   0   0   0   0   0   0   0   0   0   0   0   0   0   0   0   0   0  13 71 69 65 64 62 61 60 55 51 49 48 43 36 
   9   0   0   0   0   0   4   0   0   1   5   0   0   0   0   0   0   0   0   0   0   0   5   0   6   0   0   7   0   0   0  16 100 99 98 96 93 91 73 72 71 69 59 56 55 52 38 36 
  10   0   0   0   0   0   0   0   2   0   0   0   0   0   0   0   5   0   2   0   0   0   0   0   0   5   0   0   0   0   0  19 100 99 98 97 95 94 93 91 74 71 70 69 67 66 61 58 54 42 41 
   6   0   7   0   0   7   0   0   0   0   0   7   0   0   0   0   0   3   0   0   0   0   0   0   0   0   0   0   0   0   0  12 100 99 97 94 73 65 63 61 54 46 43 31 
  10   0   0   0   0   0   0   0   0   7   0   0   0   0   5   0   5   0   0   3   0   0   0   0   0   0   0   0   0   0   4  13 101 100 97 95 72 70 68 67 66 63 57 41 33 
  10   3   0   0   0   0   0   0   0   0   0   0   0   0   0   0   0   0   0   0   0   0   0   0   0   5   3   0   0   1   0  13 99 93 90 72 69 65 64 61 56 51 50 43 36 
   2   0   0   0   0   0   0   0   0   0   0   0   0   0   0   0   7   0   0   0   0   0   0   0   0   0   0   0   0   0   0  17 98 97 95 94 93 92 90 89 88 71 69 68 67 66 63 61 37 
   4   0   0   0   0   0   0   0   0   0   0   0   0   0   0   0   5   0   0   0   0   0   0   0   0   3   8   0   8   0  10  18 101 98 95 92 90 89 87 73 69 67 66 65 61 57 56 55 48 42 
   7   0   0   0   0   0   0   4   0   0   4  10   0   0   0   0   0   0   0   0   0   0   0   0   0   0   0   0   0   0   0  16 99 95 94 93 92 90 89 86 70 68 67 66 64 63 57 37 
  10   0   0   0   0   0   7   0   0   0   0   0   0   0   0   0   0   0   0   5   0   0   0   0   0   0   0   0   0   0   0  21 100 98 97 96 94 93 91 90 89 88 85 78 71 70 69 68 67 66 63 57 43 
   9   5   0   0   0   0   3   0   0   0   0   0   0   0   0   5   0   0   0   0   0   0   0   0   0   0   0   0   0   6   0  16 99 98 96 95 94 93 91 87 73 72 69 67 64 61 54 41 
  10   0   0   0   0   0   0   0   5   0   0   0   5   0   0   0   0   0   0   6   0   0   6   0   0   6   0   6   0   0   7  17 101 98 97 93 91 89 87 85 74 71 69 66 65 63 54 48 43 
  10   0   0   0   0   0   0   0   0   0   0   6   0   0   6   0   0   0   0   0   0   0   0   0   0   0   0   5   0   0   0  21 99 97 96 95 94 93 92 90 89 88 86 84 81 75 69 68 67 66 65 63 51 
   3   0   0   0   0   5   0   0   0   0   0   0   0   0   0   0   5   0   0   4   0   0   0   0   0   0   0   0   5   0   0  16 101 99 98 94 92 91 90 89 85 84 74 68 67 66 57 42 
   5   0   0   0   0   0   0   0   0   0   0   0   0   5   0   0   0   0   0   0   0   0   0   0   0   0   0   0   0   0   0  12 95 93 92 90 89 84 69 68 63 57 52 51 
   7   0   0   0   0   0   0   0   0   0   0   0   0   0   0   0   0   0   0   0   0   8   0   0   0   0   6   0   2   0   0  14 100 99 97 93 92 91 89 86 85 84 77 67 54 47 
   2   0   0   0   4   0   0   0   0   8   7   0   0   0   0   0   0   0   0   0   0   0   0   0   0   9   0   0   0   0   0  14 100 99 93 92 91 89 88 86 81 80 70 65 63 58 
   5   0   0   0  10   0   0   0   0   0   5   0   0   0   0   0   0   0   0   4   0   0   0   0   0   0   0   0   0   0   0  10 98 96 93 91 86 80 73 71 70 41 
   5   0   0   0   0   0   0   0   0   0   0   8  10   0   0   0   3   0   0   0   0   4   8   0   0   0   0   0   0   9   0  15 96 95 93 91 89 88 85 82 81 79 77 70 67 66 58 
   6   0   9   0   0   0   0   8   7   3   0   0   0   8   0   0   0   0   0   0   0   0   0   0   0   0   0   0   0   7   0  13 94 93 90 89 87 86 81 79 78 71 65 64 56 
   2   0   0   0   4   0   0   0   0   0   0   0   0   0   0   0   0   0   0   0   0   0   0   0   0   0   0   0   0   0   0  11 98 94 93 91 90 82 71 69 61 56 55 
   5   4   0   0   0   0   0   0   0   0   0   0   5   0   0   0   0   0   0   0   0   0   0   0   0   0   0   0   0   0   7  14 99 97 96 95 94 93 90 89 84 83 78 74 61 59 
   9   0   0   8   0   0   0   0   0   0   0   0   0   0   0   0   0   0   0   0   0   0   0   0   0   0   0   0   0   0   0  15 100 98 96 91 90 89 86 85 82 80 75 70 69 64 63 
   3   0   0   0   0   0   4   0   0   0   0   0   0   0   4   0   0   0   0  10   0   7   0   0   0   0   0   0   0   0   0  14 97 92 89 85 84 83 81 78 77 75 70 67 66 63 
   1   0   0   0   6   0   9   0   0   0   5   0   0   0   0   0   0   9   0   0   0   0   0   0   0   0   0   0   0   0   4   8 100 96 91 87 82 72 56 55 
   5   0   0   0   0   0   0  10   0   0   0   0   0   8   0   0   0   0   8   8   0   0   0   0   0   0   0   0   0   0   0  14 95 94 90 89 88 86 84 82 81 78 77 75 67 66 
  10   0   0   0   3   5   0   6   0   0   0   0   0   0   0   0   0   0   0   0   0   0   0   0   8   0   0   0   0   0   0  11 100 96 85 84 83 78 77 76 75 74 66 
   2   0   0   0   0   0   0   0   0   0   0   0   0   0   0   0   0   0   6   0   0   0   0   0   0   0   0   0   8   0   0   9 92 90 87 81 78 75 66 65 64 
   5   0   0   0   0   0   0   0   0   0   6   0   0   0   0   0   9   0   0   0   0   6   0   5   0   0   0   0   0   0   9   7 92 89 85 84 82 75 55 
   4   0   0   9   0   0   0   0   0   0   0   0   0   0   0   0   0   0   0   0   0   7   0   0   0   0   0   0   0   8   0   7 83 82 80 78 75 64 63 
   2   0   4   0   0   0   0   0   9   0   2   0   0   0   0   0   0   7   6   0   0   0   0   0   0   0   0   8   0   0   0  10 95 92 86 84 82 81 79 77 76 75 
   9   0   7   0   7   0   0   0   0   0   0   0   3   0   0   0   0   5   0   0   2   0   0   0   0   8   0   0   0   0   4   9 96 93 82 80 78 77 76 75 74 
  10   0   0   0   7   0   6   0   0   0   9   0   0   0   0   0   6   8   0   0   3   0   0   0   0   0   5   0   0   0   6   5 89 85 82 80 55 
   1   7   0   0   0   0   0   0   0   0   0   0   0   0   0   5   8   0   0   0   6   0   0   0   0   0   0   0   0   0   0   8 101 96 85 81 80 77 76 71 
   7   0   0   0   0   0   0   0   0   0   0   0   3   0   0   0   0   0   0   0   0   0   0   0   0   0   0   0   0   0   8   8 94 88 87 81 79 78 76 75 
   9   0   0   6   0   0   0   0   0   0   0   0  10   0   0   0   0   0   0   0   0   0   0   0   0   4   0   0   0   0   0   7 94 88 86 84 78 75 68 
   4   0   6   0   0   0   0   0   0   0   0   0   0   0   0   0   0   0   0   0   0   0   0   5   0   0   0   0   0   0   0   7 92 90 88 85 84 82 73 
   8   0   0   0   5   0   0   0   0   0   0   0   0   0   0   0   6   0   0   0   0   0   0   0   8   0   0   0   0   0   0   7 96 87 84 77 76 75 67 
   6   4   4   0   0   0   6   0   0   0   0   7   0   0   0   0   0   0   0   7   0   0   0   0   0   0   0   8   0   0   0   7 91 87 85 83 78 77 76 
   4   0   6   0   0   0   0   0   0   0   0   0   0  10   0   0   0   0   0   0   0   0   0   4   0   0   0   0   0   0   0   5 86 80 79 75 64 
   8   0   0   0   0   0   0   0   0   0   0   0   0   0   0   0   0   0   0   0   6   0   4   0   0   0   0   0   0   0   0   6 86 82 81 79 78 76 
   1   0   0   0   0   0   0   4   0   0   0   0   0   0   0   0   0   9   0   0   0   0   6   0   0   0   0   0   6   0   0   5 90 81 78 75 68 
   3   0   0   0   0   0   0   0   0   0   0   0   2   3   0   0   0   0   0   3   0   0   0   0   0   0   0   0   0   0   0   5 83 81 79 78 76 
  10   6   0   0   0   0   0   0   0   0   0   0   0   5   0   0   0   0   0   0   0   0   0   0   0   0   7   0   0   0   0   5 85 84 83 80 76 
   4   5   0   0   0   0   7   8   9   0   0   0   0   0   0   0  10   0   0   0   0   0   0   0   0   0   0   0   0   0   0   5 83 82 79 76 75 
   9   0   0   0  10   0   0   0   0   6   0   0   0   0   0   0   0   0   8   0   0   0   0   0   0   0   0   5   0   0   0   5 90 83 78 76 75 
   9   5   0   0   0   0   0   7   0   0   0   0   0   0   0   0   0   0   0   0   9   0   0   0   0   0   0   0   0   5   0   5 81 80 79 77 75 
   7   4   0   0   0   0  10   0   0   0   0   0   0   0   0   0   0   0   0   0   0   0   0   0   0   0   0   0   0   0   0   5 93 83 79 76 75 
   8   0   0   0   8  10   0   0   7   8   0   0   0   0   0   0   5   0   0   0   0   0   7   0   0   0   0   0   0   0   0   4 86 77 76 75 
   2   0   0   6   8   5   0   0   0   0   0   0   0   0   0   0   0   0   0   0   5   0   0   0   0   0   5   0   0   0   0   3 98 77 75 
  10   0   0   0   0   0   0   0   0   0   0   0   0   0   8   0   0   0   0   0   0   0   4   0   0   0   0   4   0   0   0   2 79 76 
   5   0   0   0   0   0   0   0   7   0   0   0   0   0   0   0   0   0   0   0   0   0   0   0   0   0   0   6   0   0   1   2 88 77 
   3   0   0   0   0   0   0   0   0   0   0   0   5   0   0   9   0   0   0   0   0   0   0   0   0   0   0   0   0   0   0   2 82 77 
   7   0   0   0   0   0   0   0   0   0   0   0   0   0   6   0   3   0   0   5   0   0   0   0   0   0   0   0   6   6   6   1 80 
   6   0   0   6   4   0   0   0   8   0   0   0   0   0   0   0   0   0   0   0   0   0   0   5   0   9   0   4   0   0   0   1 80 
   4   0   5   0   0   0   0   0   0   0   0   2   0   0   0   0   0   0   0   0  10   8   0   0   0   0   0   0   0   0   0   1 76 
   9   0   0   0   0   0  10   0   0   0   0   0   0   7   5   0   9   8   0   0   0   0   8  10   0   0   0   9   0   0   0   1 79 
   9   0   0   0   0   0   0   0   0   0   0   0   0   0   0   0   0   0   0   0   0   0   0   0   0   0   0   0   0   0   0   1 87 
   4   0   7   0   0   0   0   0   0   9   0   0   0   0   0   0   8   7   0   7   0   0   7   0   0   0   0   0   0   0   0   1 75 
   2   0   0   0   0   0   0   0   0   0   0   0   0   0   0   0   0   0   0   0   0   0   7   0   0   0   0   0   0   0   0   1 77 
   5   0   0   0   0   0   0   0   0   0   0   0  10   0   0   0   0   0   0   0   0   0   0   7   0   0   0   0   0   0   0   1 75 
  10   0   0   0   0   0   0   0   0   0   0   0   0   0   6   0   0   0   0   0   0   0   0   0   0   0   0   0   0   0   0   1 81 
   9   0   9   0   0   0   4   0   0   7   0   0   0   4   0   6   0   0   0   0   0   6   0   0   0   7   0   4   0   0   0   1 102
   8   0   0   0   0   0   0   0   0   0   0   0   0   0   0   0   0   0   0   0   0   0   0   0   0   0   8   0   0   0   0   1 102
   3   0   0   0   0   8   0   0   0   0   7   6   0   0   0   0   0   0   0   0   0   0   0   0   0   0   0   0   0   0   0   1 102
   4   0   6   0   0   0   0   0   0   0   0   0   0   0   0   0   0   0   0   0   0   0   3   6   0   0   0   0   0   0   0   1 102
   1   8   8   0   0   0   0   0   0   0   0   0   0   0   0   0   0   0   0   0   0   0   0   0   0   0   6   0   0   0   0   1 102
   1   0   0   0   0   0   0   0   0   6   0   0   0   0   0   0   0   0   0   0   8   0   0   0   7   0   0   0   0   0   9   1 102
   7   0   0   0   0   0   0   0   0   0   0   0   0   0   0   0   0   0   0   0   0   0   0   0   0   0   0   0  10   0   0   1 102
   4   0   0   0   0   0   0   0   0   0   5   0   0   0   0   0   0   0   0   5   0   0   0   0   0   0   0   0   0   0   0   1 102
   3   0   0   0   0   0   0   0   0   0   0   0   0   0   0   3   5   0   0   0   0   0   0   0   0   0   0   0   0   7   0   1 102
   1   0   3   0   0   0   0   0   0   0   0   0   0   8   9   0   0   0   0  10   0   0   8   5   6   0   0   4   0   0   0   1 102
   2   7   0   0   0   0   0   0   0   5   0   0   0   0   0   0   0   0   0   0   0   8   6   0   0   0   0   0   5   0   0   1 102
   3   0   0   0   0   0   0   0   0   0   0   0   0   0   0   0   0   0   0   6   0   0   0   0   5   9   0   0   0   0   0   1 102
   8   0   0   0   0   0   5   6   0   0   0   0   0   0   0  10   0   0   0   0   0   0   0   0   0   0   0   0   0   3   0   1 102
   4   0   0   0   0   0   0   2   0   6   0   0   0   0   0   0   7   0   4   0   0   0   0   7   6   0   0   8   0   9   0   1 102
   8   0   0   0   0   0   0   0   0   0   0   0   9   0   0   0   0   0   0   5   3   0   0   0   0   0   0   0   0   0   0   1 102
   7   0   0   0   0   0   0   0   0   0  10   0   0   0   0   0   0   0   0   0   0   0   0   0   0   0   0   0   6   0   0   1 102
   6   0   5   0   0   0   0   0   0   0   0   0   0   0   0   0   0   6   0   0   0   0   0   0   0   0   8   0   0   0   0   1 102
   8   0   0   0   0   0   0   0   0   0   0   9   0   0   6   0   0   0   0   0   0   0   7   0   0   0   0   0   0   0   0   1 102
  10   0   0   0   0   0   9   0   0   0   6   0   8   0   7   0   0   3   0   0   0   0   0   0   0   0   0   0   0   0   0   1 102
   7  10   9   0   0   7   0   0   0   0   0   0   0   0   0   0   0   0   0   0   6   0   0   0   0   0   0   0   0   0   5   1 102
   5   9   0   0   0   0   0   0   0   0   0   0   0   6   0   0   0   0   4   0   0   0   0   0   8   5   0   0   0   0   0   1 102
  10   0   0   6   7   0   0   0   0   0   9   5   0   0   7   0   0   0   0   0   0   5   0   0   4   0   0   0   0   0   0   1 102
   1   0   0   0   0   0   0   0   0   0   0   6   0   0   0   0   0   0   0   0   0   5   0   0   0   0   0   0   7   0   0   1 102
   6  10   0   0   0   0   0   0   0   0  10   0   0   0   0   0   0   0   0   9   0   0   0   0   0   0   0   0   0   0   0   1 102
   2   0   0   0   4   0   0   0   0   0   0   4   0   7   8   0   0   0   0   0   0   4   9   0   0   9   0   0   0   0   7   1 102
   9   0   0   6   0   0   0   8   0   0   0   0   0   0   0   0   6   0   0   0   0   0   6   0   0   0   0   0   0   9   2   1 102
   1   0   0   0   0   0   0   0   0   0   0   0   8   0   0   0   0   0  10   0   8   0   0   0   0   0   0  10   0   2   0   1 102
   0   0   0   0   0   0   0   0   0   0   0   0   0   0   0   0   0   0   0   0   0   0   0   0   0   0   0   0   0   0   0   0 
